     30      2      8    440     10
     52     44
     11     10      0      9     26     23      6     11     26      7      1     27     26     13      5      2      1     10     24      7     23      4      6     29     16     29     19      8     17      2      7     25      6      0     12     16     23      8     19     16     14     13      4      6     29     15     24     21     15      9     20     27     25     22     27      0      5     12     25     28     26     29     29     24      0     10      9      1      4     25     17     21     19      2      5     21     25      8      4     20     22     14      4      8     13     16     13     22     23      4     20      3     23     10     15     22      9     11     16      7     26      6     16     24      7     17     27      3      7     26     21      2     26     28      1     19     27     26     10      0
    -29     78    105     60     72     54     -6    100     74      7     -6    -11     89     92     58    100    113    -10     38    102    108     12    -24     63     70     28    -25     76    -23     78
      3     10     11	    344    215      7      8      2      0      0      0      0      0      0    204      0      0     42      0    -44      0     28      0     50      0      0      0    113      0      0      0      0      4    102     15     86      0      0
      1     11     10	    146     65      1      6      4      0      0      0      0      0      0    -25    -25      0      0      0      0      0     89      0      0      0      0      6      0      0      0      0      0      0     75      0      0      0      0
      3     10     14	    188    129      8      8      2      0      0      0      0      0      0      0      0     72      0      0      0      0      0      0     79      0      0      0    142      0      0    148      0      0      0      0      0      0      0
      6     14     14	    153     86      8      8      3      0      0      0      0      0     -2     11      0     91      0    114     86    118      0    112      0      0      0      0      0      0      0      0      0      0      0      0      0      0      0
      6     10     12	    117     52      8      8      1      0      0      0      0      0      0      0      0      0    -18      0      0      0      0      0      0      0      0      0      0      0      0      0     65      0      0      0      2      0      0
      3     10     14	    336    174      8      8      9      0      0      0     -2      0      0      0      0      0    141      0      0      0      0      0      0      0      0      0      0    139      0      0      0     60     16      0      0      0      0
      1     10     14	    396    206      3      5     10    204    -25      0     11      0      0      0      0      0      0      0     92      0      0    161      0      0      0      0      0      0      0    134      0      0    122     87      0    234      7
      6     15     15	    306    178      6      7     10      0    -25      0      0      0      0      0      0    164      0      0      0      0      0      0     85      0      0      0      0      0      0      0      0      0      0      0      0      0      0
      5     13     14	    242    140      5      5      5      0      0     72     91      0      0      0    164      0      0      0      0      0      0    191      0    169      0      0      0      0      0     19      0      0      0      0      0      0      0
      2     14     15	    443    198      4      7     10     42      0      0      0    -18    141      0      0      0      0      0    194      0      0      0      0      0     63      0     34      0      0      0    182      0     77      0      0      0    196
      3     11     15	    315     84      6      8      1      0      0      0    114      0      0      0      0      0      0      0      0      0      0      0      0      0      0      0      0    217      0     39     19      0      0     40      0      0      0
      2     14     11	    464     81      5      7     10    -44      0      0     86      0      0     92      0      0    194      0      0      0      0    218      0      0      0      0      0      0      0      0      0      0      0      0      0      0    117
      6     15     15	    316    174      6      6      1      0      0      0    118      0      0      0      0      0      0      0      0      0      0      0     19      0      0      0      0      0      0      0      0      0      0      0    105      0      0
      3     11     12	    294     66      5      5      4     28     89      0      0      0      0      0      0      0      0      0      0      0      0      0      0      0     68      0      0      0      0      0      0      0      0      0     81     -3      0
      4     14     13	    307    123      5      5      5      0      0      0    112      0      0    161      0    191      0      0    218      0      0      0      0     67      0      0      0      0      0      0      0      0      0      0      0      0      0
      4     11     12	    164     64      7      8      7     50      0     79      0      0      0      0     85      0      0      0      0     19      0      0      0      0      0      0      0      0      0      0      0      0      0      0      0      0    -30
      5     11     15	    466    221      5      7      3      0      0      0      0      0      0      0      0    169      0      0      0      0      0     67      0      0      0      0      0      0      0      0     47      0      0      0     31      0     27
      3     14     13	    102     55      7      8      4      0      0      0      0      0      0      0      0      0     63      0      0      0     68      0      0      0      0      0      0      0     19      0      0      0      0      0      0      0     20
      4     12     14	    213    143      4      6      1      0      6      0      0      0      0      0      0      0      0      0      0      0      0      0      0      0      0      0      0      0      0      0      0      0      0      0      0      0      0
      4     13     13	    179     71      4      4      4    113      0    142      0      0      0      0      0      0     34      0      0      0      0      0      0      0      0      0      0      0      0      0      0     -6      0    121      0     46      0
      5     13     10	    407    124      8      8     10      0      0      0      0      0    139      0      0      0      0    217      0      0      0      0      0      0      0      0      0      0      0      0      0      0      0      0      0    291    182
      1     10     14	    352    226      7      8      9      0      0      0      0      0      0      0      0      0      0      0      0      0      0      0      0      0     19      0      0      0      0      0      0      0     71    104      0    231      0
      6     14     13	    203    142      8      8      8      0      0    148      0      0      0    134      0     19      0     39      0      0      0      0      0      0      0      0      0      0      0      0      0     34      0     70      0      0      0
      4     13     13	    294    137      8      8      4      0      0      0      0     65      0      0      0      0    182     19      0      0      0      0      0     47      0      0      0      0      0      0      0      0      0      0     64      0      0
      3     13     14	    144     97      7      7      4      4      0      0      0      0     60      0      0      0      0      0      0      0      0      0      0      0      0      0     -6      0      0     34      0      0     69      0     73      0      0
      1     12     12	    166     83      6      7      6    102     75      0      0      0     16    122      0      0     77      0      0      0      0      0      0      0      0      0      0      0     71      0      0     69      0      0     84      0    -16
      2     10     11	    251    151      4      7      8     15      0      0      0      0      0     87      0      0      0     40      0      0      0      0      0      0      0      0    121      0    104     70      0      0      0      0      0      0      0
      5     13     10	    186    113      7      7      7     86      0      0      0      2      0      0      0      0      0      0      0    105     81      0      0     31      0      0      0      0      0      0     64     73     84      0      0      0      0
      4     12     14	    366    193      8      8      1      0      0      0      0      0      0    234      0      0      0      0      0      0     -3      0      0      0      0      0     46    291    231      0      0      0      0      0      0      0      0
      6     11     13	    261     87      6      6      3      0      0      0      0      0      0      7      0      0    196      0    117      0      0      0    -30     27     20      0      0    182      0      0      0      0    -16      0      0      0      0